p cnf 10 45
-5 10 -4 
-6 9 -10 
-8 -8 5 
-2 10 8 
-7 -3 7 
7 -1 2 
6 -7 7 
-6 -6 -2 
1 2 7 
8 -3 1 
-10 4 -4 
-4 2 -2 
6 -2 -1 
-4 -1 -9 
7 -3 -4 
-9 7 -8 
3 1 -10 
-2 3 4 
7 9 -6 
-10 7 -10 
-1 9 -6 
9 -4 -9 
6 -7 -7 
3 2 -4 
7 -3 -1 
6 10 -4 
7 3 8 
4 5 1 
3 -1 -10 
-9 1 -2 
2 9 -2 
-5 -8 1 
3 5 4 
-6 2 4 
-3 -6 7 
-10 -3 9 
1 -10 2 
-8 4 4 
-9 -2 -9 
9 7 -4 
4 -2 -6 
-1 -1 7 
9 -3 -8 
-4 1 -9 
-10 -5 -8 
